
50
76500

18930 8930
15144 7144
1893 893
5679 2679
9465 4465
11358 5358
17037 8037
7572 3572
11682 2682
2596 596
15144 7144
3786 1786
7572 3572
3786 1786
7572 3572
3786 1786
6490 1490
3894 894
18930 8930
18930 8930
5679 2679
9086 2086
12980 2980
3894 894
2596 596
3894 894
18930 8930
9086 2086
3786 1786
10384 2384
9086 2086
9086 2086
2596 596
15144 7144
1893 893
3894 894
1298 298
11358 5358
3894 894
1893 893
5192 1192
5679 2679
12980 2980
6490 1490
15144 7144
3786 1786
5192 1192
7788 1788
9086 2086
6490 1490
